objective value:                                  -15
t_n_11                                              1 	(obj:-1)
t_n_395                                             1 	(obj:-1)
t_n_415                                             1 	(obj:-1)
t_n_480                                             1 	(obj:-1)
t_n_496                                             1 	(obj:-1)
t_n_554                                             1 	(obj:-1)
t_n_573                                             1 	(obj:-1)
t_n_705                                             1 	(obj:-1)
t_n_755                                             1 	(obj:-1)
t_n_878                                             1 	(obj:-1)
t_n_901                                             1 	(obj:-1)
t_n_916                                             1 	(obj:-1)
t_n_962                                             1 	(obj:-1)
t_n_972                                             1 	(obj:-1)
t_n_986                                             1 	(obj:-1)
